# Unrestricted Hartree-Fock single point calculation
# with tight SCF convergence criteria
#
! UHF SVP TightSCF pal8

* xyz 1 2
  C 0.0 0.0 0.0
  O 0.0 0.0 1.13
*