# Frequency calculation for C2H2
#
! B3LYP TZVPP OPT NumFreq pal8
%freq CentralDiff true
end
* int 0 1
C 0 0 0 0.000 0 0
C 1 0 0 1.22 0 0
H 1 2 0 1.08 180 0
H 2 1 3 1.08 180 0
*
